;; Original file: ts_88.smt2
(set-logic HORN)
(declare-fun itp1 (Real Real Real Real) Bool)
(declare-fun fail () Bool)
(assert (forall ((count1 Real) (count3 Real) (count5 Real) (z1 Real))
  (=> (and (= count1 count3) (= count1 count5) (= count3 0) (= z1 count1))
      (itp1 count1 count3 count5 z1))))
(assert (forall ((count5 Real)
         (count1 Real)
         (count3 Real)
         (z1 Real)
         (count2 Real)
         (count4 Real)
         (count6 Real)
         (z2 Real))
  (let ((a!1 (or (and (= count2 (+ count1 1))
                      (= count4 count3)
                      (= count6 count5)
                      (= z2 (+ z1 1)))
                 (and (= count4 (+ count3 1))
                      (= count2 count1)
                      (= count6 count5)
                      (= z2 (- z1 1)))
                 (and (= count6 (+ count5 1))
                      (= count2 count1)
                      (= count4 count3)
                      (= z2 (+ z1 1))))))
    (=> (and (itp1 count1 count3 count5 z1) a!1) (itp1 count2 count4 count6 z2)))))
(assert (forall ((count3 Real) (count5 Real) (z1 Real) (count1 Real))
  (=> (and (itp1 count1 count3 count5 z1)
           (= count1 count3)
           (= count1 count5)
           (not (= z1 count1)))
      false)))

(check-sat)
(exit)
